computational_data/solutions/ER_n30_p035_s8.sol
Optimal - objective value 8.00000000
      7 r_7                         1                       1
     12 r_12                        1                       1
     26 r_26                        1                       1
     29 r_29                        1                       1
     38 b_8                         1                       1
     40 b_10                        1                       1
     51 b_21                        1                       1
     52 b_22                        1                       1
