computational_data/logs/ER_n30_p035_s8.log
Welcome to the CBC MILP Solver 
Version: 2.10.12 
Build Date: Aug 20 2024 

command line - /opt/homebrew/bin/cbc computational_data/lp/ER_n30_p035_s8.lp seconds 10.0 solve solu computational_data/solutions/ER_n30_p035_s8.sol (default strategy 1)
seconds was changed from 1e+100 to 10
Continuous objective value is 5.67549 - 0.00 seconds
Cgl0003I 0 fixed, 0 tightened bounds, 157 strengthened rows, 0 substitutions
Cgl0003I 0 fixed, 0 tightened bounds, 142 strengthened rows, 0 substitutions
Cgl0003I 0 fixed, 0 tightened bounds, 67 strengthened rows, 0 substitutions
Cgl0003I 0 fixed, 0 tightened bounds, 26 strengthened rows, 0 substitutions
Cgl0003I 0 fixed, 0 tightened bounds, 7 strengthened rows, 0 substitutions
Cgl0003I 0 fixed, 0 tightened bounds, 1 strengthened rows, 0 substitutions
Cgl0004I processed model has 249 rows, 60 columns (60 integer (60 of which binary)) and 1324 elements
Cutoff increment increased from 1e-05 to 0.9999
Cbc0038I Initial state - 38 integers unsatisfied sum - 5.5656
Cbc0038I Pass   1: suminf.    5.02578 (32) obj. 6.02578 iterations 31
Cbc0038I Pass   2: suminf.    6.66667 (20) obj. 10 iterations 54
Cbc0038I Pass   3: suminf.    2.66667 (8) obj. 9.33333 iterations 29
Cbc0038I Pass   4: suminf.    1.66667 (5) obj. 10 iterations 38
Cbc0038I Pass   5: suminf.    0.00000 (0) obj. 10 iterations 13
Cbc0038I Solution found of 10
Cbc0038I Before mini branch and bound, 13 integers at bound fixed and 0 continuous
Cbc0038I Full problem 249 rows 60 columns, reduced to 226 rows 47 columns - 3 fixed gives 99, 25 - ok now
Cbc0038I Full problem 249 rows 60 columns, reduced to 92 rows 23 columns
Cbc0038I Mini branch and bound did not improve solution (0.02 seconds)
Cbc0038I Round again with cutoff of 8.66764
Cbc0038I Pass   6: suminf.    5.02578 (32) obj. 6.02578 iterations 0
Cbc0038I Pass   7: suminf.    1.36637 (14) obj. 8.66764 iterations 59
Cbc0038I Pass   8: suminf.    0.86414 (11) obj. 8.66764 iterations 19
Cbc0038I Pass   9: suminf.    4.18182 (14) obj. 7.90909 iterations 65
Cbc0038I Pass  10: suminf.    4.00000 (14) obj. 8 iterations 10
Cbc0038I Pass  11: suminf.    3.71429 (17) obj. 7.71429 iterations 16
Cbc0038I Pass  12: suminf.    4.60175 (17) obj. 8.66764 iterations 60
Cbc0038I Pass  13: suminf.    2.79480 (18) obj. 8.66764 iterations 31
Cbc0038I Pass  14: suminf.    4.18076 (21) obj. 8.66764 iterations 44
Cbc0038I Pass  15: suminf.    3.07143 (17) obj. 8.35714 iterations 38
Cbc0038I Pass  16: suminf.    5.73236 (19) obj. 8.66764 iterations 70
Cbc0038I Pass  17: suminf.    3.00000 (15) obj. 8 iterations 42
Cbc0038I Pass  18: suminf.    2.91429 (20) obj. 7.91429 iterations 12
Cbc0038I Pass  19: suminf.    1.82798 (13) obj. 8.66764 iterations 22
Cbc0038I Pass  20: suminf.    0.86414 (20) obj. 8.66764 iterations 34
Cbc0038I Pass  21: suminf.    3.58571 (18) obj. 7.75714 iterations 60
Cbc0038I Pass  22: suminf.    3.00000 (9) obj. 8 iterations 24
Cbc0038I Pass  23: suminf.    2.90909 (15) obj. 8.45455 iterations 17
Cbc0038I Pass  24: suminf.    4.66764 (10) obj. 8.66764 iterations 60
Cbc0038I Pass  25: suminf.    3.72174 (19) obj. 7.64348 iterations 57
Cbc0038I Pass  26: suminf.    2.51613 (11) obj. 8.09677 iterations 30
Cbc0038I Pass  27: suminf.    1.50000 (3) obj. 8.5 iterations 25
Cbc0038I Pass  28: suminf.    0.99708 (3) obj. 8.66764 iterations 19
Cbc0038I Pass  29: suminf.    0.74781 (17) obj. 8.66764 iterations 49
Cbc0038I Pass  30: suminf.    4.73913 (22) obj. 8.26087 iterations 61
Cbc0038I Pass  31: suminf.    3.66472 (12) obj. 8.66764 iterations 27
Cbc0038I Pass  32: suminf.    1.35966 (18) obj. 8.66764 iterations 45
Cbc0038I Pass  33: suminf.    0.90212 (15) obj. 8.66764 iterations 25
Cbc0038I Pass  34: suminf.    4.52679 (22) obj. 7.65179 iterations 71
Cbc0038I Pass  35: suminf.    3.33236 (8) obj. 8.66764 iterations 28
Cbc0038I Rounding solution of 9 is better than previous of 10

Cbc0038I Before mini branch and bound, 1 integers at bound fixed and 0 continuous
Cbc0038I Full problem 249 rows 60 columns, reduced to 247 rows 59 columns - 5 fixed gives 51, 16 - ok now
Cbc0038I Mini branch and bound did not improve solution (0.06 seconds)
Cbc0038I Round again with cutoff of 7.53518
Cbc0038I Pass  35: suminf.    5.02578 (32) obj. 6.02578 iterations 0
Cbc0038I Pass  36: suminf.    3.80554 (16) obj. 7.53518 iterations 59
Cbc0038I Pass  37: suminf.    3.52317 (19) obj. 7.53518 iterations 20
Cbc0038I Pass  38: suminf.    2.87207 (19) obj. 7.53518 iterations 16
Cbc0038I Pass  39: suminf.    3.18491 (19) obj. 7.53518 iterations 22
Cbc0038I Pass  40: suminf.    2.50334 (19) obj. 7.53518 iterations 32
Cbc0038I Pass  41: suminf.    5.24106 (22) obj. 7.53518 iterations 59
Cbc0038I Pass  42: suminf.    3.68750 (27) obj. 7.50694 iterations 44
Cbc0038I Pass  43: suminf.    6.45075 (16) obj. 7.53518 iterations 54
Cbc0038I Pass  44: suminf.    4.92355 (20) obj. 7.53518 iterations 45
Cbc0038I Pass  45: suminf.    4.46482 (19) obj. 7.53518 iterations 22
Cbc0038I Pass  46: suminf.    5.13274 (20) obj. 7.53518 iterations 61
Cbc0038I Pass  47: suminf.    4.23083 (21) obj. 7.53518 iterations 25
Cbc0038I Pass  48: suminf.    4.04371 (20) obj. 7.53518 iterations 13
Cbc0038I Pass  49: suminf.    5.87436 (26) obj. 7.53518 iterations 45
Cbc0038I Pass  50: suminf.    4.53518 (17) obj. 7.53518 iterations 39
Cbc0038I Pass  51: suminf.    4.12360 (21) obj. 7.53518 iterations 18
Cbc0038I Pass  52: suminf.    4.73251 (20) obj. 7.53518 iterations 58
Cbc0038I Pass  53: suminf.    3.54463 (19) obj. 7.53518 iterations 26
Cbc0038I Pass  54: suminf.    5.58423 (18) obj. 7.53518 iterations 30
Cbc0038I Pass  55: suminf.    4.01847 (23) obj. 7.53518 iterations 24
Cbc0038I Pass  56: suminf.    5.49917 (21) obj. 7.53518 iterations 44
Cbc0038I Pass  57: suminf.    3.54759 (18) obj. 7.53518 iterations 44
Cbc0038I Pass  58: suminf.    3.24629 (21) obj. 7.53518 iterations 13
Cbc0038I Pass  59: suminf.    5.63518 (22) obj. 7.53518 iterations 59
Cbc0038I Pass  60: suminf.    4.00225 (22) obj. 7.53518 iterations 42
Cbc0038I Pass  61: suminf.    3.86037 (20) obj. 7.53518 iterations 9
Cbc0038I Pass  62: suminf.    4.06728 (14) obj. 7.53518 iterations 53
Cbc0038I Pass  63: suminf.    3.24343 (17) obj. 7.53518 iterations 26
Cbc0038I Pass  64: suminf.    4.17839 (16) obj. 7.53518 iterations 44
Cbc0038I No solution found this major pass
Cbc0038I Before mini branch and bound, 0 integers at bound fixed and 0 continuous
Cbc0038I Full problem 249 rows 60 columns, reduced to 249 rows 60 columns - 5 fixed gives 68, 20 - ok now
Cbc0038I Mini branch and bound did not improve solution (0.08 seconds)
Cbc0038I After 0.08 seconds - Feasibility pump exiting with objective of 9 - took 0.07 seconds
Cbc0012I Integer solution of 9 found by feasibility pump after 0 iterations and 0 nodes (0.08 seconds)
Cbc0031I 5 added rows had average density of 60
Cbc0013I At root node, 5 cuts changed objective from 5.6754947 to 5.9999892 in 100 passes
Cbc0014I Cut generator 0 (Probing) - 0 row cuts average 0.0 elements, 0 column cuts (0 active)  in 0.031 seconds - new frequency is -100
Cbc0014I Cut generator 1 (Gomory) - 1987 row cuts average 60.0 elements, 0 column cuts (0 active)  in 0.021 seconds - new frequency is 1
Cbc0014I Cut generator 2 (Knapsack) - 0 row cuts average 0.0 elements, 0 column cuts (0 active)  in 0.004 seconds - new frequency is -100
Cbc0014I Cut generator 3 (Clique) - 0 row cuts average 0.0 elements, 0 column cuts (0 active)  in 0.005 seconds - new frequency is -100
Cbc0014I Cut generator 4 (MixedIntegerRounding2) - 0 row cuts average 0.0 elements, 0 column cuts (0 active)  in 0.016 seconds - new frequency is -100
Cbc0014I Cut generator 5 (FlowCover) - 0 row cuts average 0.0 elements, 0 column cuts (0 active)  in 0.001 seconds - new frequency is -100
Cbc0010I After 0 nodes, 1 on tree, 9 best solution, best possible 5.9999892 (0.24 seconds)
Cbc0012I Integer solution of 8 found by DiveCoefficient after 3650 iterations and 2 nodes (0.26 seconds)
Cbc0001I Search completed - best objective 8, took 4735 iterations and 26 nodes (0.38 seconds)
Cbc0032I Strong branching done 538 times (11480 iterations), fathomed 6 nodes and fixed 4 variables
Cbc0035I Maximum depth 8, 73 variables fixed on reduced cost
Cuts at root node changed objective from 5.67549 to 5.99999
Probing was tried 100 times and created 0 cuts of which 0 were active after adding rounds of cuts (0.031 seconds)
Gomory was tried 118 times and created 1987 cuts of which 0 were active after adding rounds of cuts (0.022 seconds)
Knapsack was tried 100 times and created 0 cuts of which 0 were active after adding rounds of cuts (0.004 seconds)
Clique was tried 100 times and created 0 cuts of which 0 were active after adding rounds of cuts (0.005 seconds)
MixedIntegerRounding2 was tried 100 times and created 0 cuts of which 0 were active after adding rounds of cuts (0.016 seconds)
FlowCover was tried 100 times and created 0 cuts of which 0 were active after adding rounds of cuts (0.001 seconds)
TwoMirCuts was tried 1 times and created 0 cuts of which 0 were active after adding rounds of cuts (0.001 seconds)
ZeroHalf was tried 1 times and created 0 cuts of which 0 were active after adding rounds of cuts (0.001 seconds)

Result - Optimal solution found

Objective value:                8.00000000
Enumerated nodes:               26
Total iterations:               4735
Time (CPU seconds):             0.38
Time (Wallclock seconds):       0.40

Total time (CPU seconds):       0.38   (Wallclock seconds):       0.40

